\* Asignación *\
Maximize
Satisfacción_Total: 5 x_(1,_'Diseño_jupyter_notebooks')
 + x_(1,_'Diseño_parciales') + 4 x_(1,_'Diseño_talleres_magistrales')
 + 6 x_(1,_'Diseño_talleres_trabajo_asistido') + 3 x_(1,_'Diseño_tareas')
 + 8 x_(1,_'Diseño_y_grabación_videos_PuLP')
 + 2 x_(1,_'Diseño_y_grabación_videos_magistrales')
 + 10 x_(1,_'Edición_videos_PuLP')
 + 9 x_(1,_'Edición_videos_trabajo_asistido')
 + 7 x_(1,_'Grabación_videos_trabajo_asistido')
 + 6 x_(2,_'Diseño_jupyter_notebooks') + 3 x_(2,_'Diseño_parciales')
 + 2 x_(2,_'Diseño_talleres_magistrales')
 + 4 x_(2,_'Diseño_talleres_trabajo_asistido') + x_(2,_'Diseño_tareas')
 + 9 x_(2,_'Diseño_y_grabación_videos_PuLP')
 + 5 x_(2,_'Diseño_y_grabación_videos_magistrales')
 + 10 x_(2,_'Edición_videos_PuLP')
 + 8 x_(2,_'Edición_videos_trabajo_asistido')
 + 7 x_(2,_'Grabación_videos_trabajo_asistido')
 + x_(3,_'Diseño_jupyter_notebooks') + 5 x_(3,_'Diseño_parciales')
 + 10 x_(3,_'Diseño_talleres_magistrales')
 + 3 x_(3,_'Diseño_talleres_trabajo_asistido') + 9 x_(3,_'Diseño_tareas')
 + 6 x_(3,_'Diseño_y_grabación_videos_PuLP')
 + 4 x_(3,_'Diseño_y_grabación_videos_magistrales')
 + 8 x_(3,_'Edición_videos_PuLP') + 7 x_(3,_'Edición_videos_trabajo_asistido')
 + 2 x_(3,_'Grabación_videos_trabajo_asistido')
 + 6 x_(4,_'Diseño_jupyter_notebooks') + 8 x_(4,_'Diseño_parciales')
 + 9 x_(4,_'Diseño_talleres_magistrales')
 + 5 x_(4,_'Diseño_talleres_trabajo_asistido') + 10 x_(4,_'Diseño_tareas')
 + 3 x_(4,_'Diseño_y_grabación_videos_PuLP')
 + 7 x_(4,_'Diseño_y_grabación_videos_magistrales')
 + 2 x_(4,_'Edición_videos_PuLP') + x_(4,_'Edición_videos_trabajo_asistido')
 + 4 x_(4,_'Grabación_videos_trabajo_asistido')
 + 2 x_(5,_'Diseño_jupyter_notebooks') + 10 x_(5,_'Diseño_parciales')
 + 7 x_(5,_'Diseño_talleres_magistrales')
 + 4 x_(5,_'Diseño_talleres_trabajo_asistido') + 8 x_(5,_'Diseño_tareas')
 + x_(5,_'Diseño_y_grabación_videos_PuLP')
 + 9 x_(5,_'Diseño_y_grabación_videos_magistrales')
 + 5 x_(5,_'Edición_videos_PuLP') + 6 x_(5,_'Edición_videos_trabajo_asistido')
 + 3 x_(5,_'Grabación_videos_trabajo_asistido')
Subject To
Asignación_de_la_responsabilidad_Diseño_jupyter_notebooks:
 x_(1,_'Diseño_jupyter_notebooks') + x_(2,_'Diseño_jupyter_notebooks')
 + x_(3,_'Diseño_jupyter_notebooks') + x_(4,_'Diseño_jupyter_notebooks')
 + x_(5,_'Diseño_jupyter_notebooks') = 1
Asignación_de_la_responsabilidad_Diseño_parciales: x_(1,_'Diseño_parciales')
 + x_(2,_'Diseño_parciales') + x_(3,_'Diseño_parciales')
 + x_(4,_'Diseño_parciales') + x_(5,_'Diseño_parciales') = 1
Asignación_de_la_responsabilidad_Diseño_talleres_magistrales:
 x_(1,_'Diseño_talleres_magistrales') + x_(2,_'Diseño_talleres_magistrales')
 + x_(3,_'Diseño_talleres_magistrales') + x_(4,_'Diseño_talleres_magistrales')
 + x_(5,_'Diseño_talleres_magistrales') = 1
Asignación_de_la_responsabilidad_Diseño_talleres_trabajo_asistido:
 x_(1,_'Diseño_talleres_trabajo_asistido')
 + x_(2,_'Diseño_talleres_trabajo_asistido')
 + x_(3,_'Diseño_talleres_trabajo_asistido')
 + x_(4,_'Diseño_talleres_trabajo_asistido')
 + x_(5,_'Diseño_talleres_trabajo_asistido') = 1
Asignación_de_la_responsabilidad_Diseño_tareas: x_(1,_'Diseño_tareas')
 + x_(2,_'Diseño_tareas') + x_(3,_'Diseño_tareas') + x_(4,_'Diseño_tareas')
 + x_(5,_'Diseño_tareas') = 1
Asignación_de_la_responsabilidad_Diseño_y_grabación_videos_PuLP:
 x_(1,_'Diseño_y_grabación_videos_PuLP')
 + x_(2,_'Diseño_y_grabación_videos_PuLP')
 + x_(3,_'Diseño_y_grabación_videos_PuLP')
 + x_(4,_'Diseño_y_grabación_videos_PuLP')
 + x_(5,_'Diseño_y_grabación_videos_PuLP') = 1
Asignación_de_la_responsabilidad_Diseño_y_grabación_videos_magistrales:
 x_(1,_'Diseño_y_grabación_videos_magistrales')
 + x_(2,_'Diseño_y_grabación_videos_magistrales')
 + x_(3,_'Diseño_y_grabación_videos_magistrales')
 + x_(4,_'Diseño_y_grabación_videos_magistrales')
 + x_(5,_'Diseño_y_grabación_videos_magistrales') = 1
Asignación_de_la_responsabilidad_Edición_videos_PuLP:
 x_(1,_'Edición_videos_PuLP') + x_(2,_'Edición_videos_PuLP')
 + x_(3,_'Edición_videos_PuLP') + x_(4,_'Edición_videos_PuLP')
 + x_(5,_'Edición_videos_PuLP') = 1
Asignación_de_la_responsabilidad_Edición_videos_trabajo_asistido:
 x_(1,_'Edición_videos_trabajo_asistido')
 + x_(2,_'Edición_videos_trabajo_asistido')
 + x_(3,_'Edición_videos_trabajo_asistido')
 + x_(4,_'Edición_videos_trabajo_asistido')
 + x_(5,_'Edición_videos_trabajo_asistido') = 1
Asignación_de_la_responsabilidad_Grabación_videos_trabajo_asistido:
 x_(1,_'Grabación_videos_trabajo_asistido')
 + x_(2,_'Grabación_videos_trabajo_asistido')
 + x_(3,_'Grabación_videos_trabajo_asistido')
 + x_(4,_'Grabación_videos_trabajo_asistido')
 + x_(5,_'Grabación_videos_trabajo_asistido') = 1
Disponibilidad_del_integrante_1: 125 x_(1,_'Diseño_jupyter_notebooks')
 + 25 x_(1,_'Diseño_parciales') + 100 x_(1,_'Diseño_talleres_magistrales')
 + 150 x_(1,_'Diseño_talleres_trabajo_asistido') + 75 x_(1,_'Diseño_tareas')
 + 200 x_(1,_'Diseño_y_grabación_videos_PuLP')
 + 50 x_(1,_'Diseño_y_grabación_videos_magistrales')
 + 250 x_(1,_'Edición_videos_PuLP')
 + 225 x_(1,_'Edición_videos_trabajo_asistido')
 + 175 x_(1,_'Grabación_videos_trabajo_asistido') <= 200
Disponibilidad_del_integrante_2: 150 x_(2,_'Diseño_jupyter_notebooks')
 + 75 x_(2,_'Diseño_parciales') + 50 x_(2,_'Diseño_talleres_magistrales')
 + 100 x_(2,_'Diseño_talleres_trabajo_asistido') + 25 x_(2,_'Diseño_tareas')
 + 225 x_(2,_'Diseño_y_grabación_videos_PuLP')
 + 125 x_(2,_'Diseño_y_grabación_videos_magistrales')
 + 250 x_(2,_'Edición_videos_PuLP')
 + 200 x_(2,_'Edición_videos_trabajo_asistido')
 + 175 x_(2,_'Grabación_videos_trabajo_asistido') <= 150
Disponibilidad_del_integrante_3: 25 x_(3,_'Diseño_jupyter_notebooks')
 + 125 x_(3,_'Diseño_parciales') + 250 x_(3,_'Diseño_talleres_magistrales')
 + 75 x_(3,_'Diseño_talleres_trabajo_asistido') + 225 x_(3,_'Diseño_tareas')
 + 150 x_(3,_'Diseño_y_grabación_videos_PuLP')
 + 100 x_(3,_'Diseño_y_grabación_videos_magistrales')
 + 200 x_(3,_'Edición_videos_PuLP')
 + 175 x_(3,_'Edición_videos_trabajo_asistido')
 + 50 x_(3,_'Grabación_videos_trabajo_asistido') <= 150
Disponibilidad_del_integrante_4: 150 x_(4,_'Diseño_jupyter_notebooks')
 + 200 x_(4,_'Diseño_parciales') + 225 x_(4,_'Diseño_talleres_magistrales')
 + 125 x_(4,_'Diseño_talleres_trabajo_asistido') + 250 x_(4,_'Diseño_tareas')
 + 75 x_(4,_'Diseño_y_grabación_videos_PuLP')
 + 175 x_(4,_'Diseño_y_grabación_videos_magistrales')
 + 50 x_(4,_'Edición_videos_PuLP')
 + 25 x_(4,_'Edición_videos_trabajo_asistido')
 + 100 x_(4,_'Grabación_videos_trabajo_asistido') <= 100
Disponibilidad_del_integrante_5: 50 x_(5,_'Diseño_jupyter_notebooks')
 + 250 x_(5,_'Diseño_parciales') + 175 x_(5,_'Diseño_talleres_magistrales')
 + 100 x_(5,_'Diseño_talleres_trabajo_asistido') + 200 x_(5,_'Diseño_tareas')
 + 25 x_(5,_'Diseño_y_grabación_videos_PuLP')
 + 225 x_(5,_'Diseño_y_grabación_videos_magistrales')
 + 125 x_(5,_'Edición_videos_PuLP')
 + 150 x_(5,_'Edición_videos_trabajo_asistido')
 + 75 x_(5,_'Grabación_videos_trabajo_asistido') <= 75
Binaries
x_(1,_'Diseño_jupyter_notebooks')
x_(1,_'Diseño_parciales')
x_(1,_'Diseño_talleres_magistrales')
x_(1,_'Diseño_talleres_trabajo_asistido')
x_(1,_'Diseño_tareas')
x_(1,_'Diseño_y_grabación_videos_PuLP')
x_(1,_'Diseño_y_grabación_videos_magistrales')
x_(1,_'Edición_videos_PuLP')
x_(1,_'Edición_videos_trabajo_asistido')
x_(1,_'Grabación_videos_trabajo_asistido')
x_(2,_'Diseño_jupyter_notebooks')
x_(2,_'Diseño_parciales')
x_(2,_'Diseño_talleres_magistrales')
x_(2,_'Diseño_talleres_trabajo_asistido')
x_(2,_'Diseño_tareas')
x_(2,_'Diseño_y_grabación_videos_PuLP')
x_(2,_'Diseño_y_grabación_videos_magistrales')
x_(2,_'Edición_videos_PuLP')
x_(2,_'Edición_videos_trabajo_asistido')
x_(2,_'Grabación_videos_trabajo_asistido')
x_(3,_'Diseño_jupyter_notebooks')
x_(3,_'Diseño_parciales')
x_(3,_'Diseño_talleres_magistrales')
x_(3,_'Diseño_talleres_trabajo_asistido')
x_(3,_'Diseño_tareas')
x_(3,_'Diseño_y_grabación_videos_PuLP')
x_(3,_'Diseño_y_grabación_videos_magistrales')
x_(3,_'Edición_videos_PuLP')
x_(3,_'Edición_videos_trabajo_asistido')
x_(3,_'Grabación_videos_trabajo_asistido')
x_(4,_'Diseño_jupyter_notebooks')
x_(4,_'Diseño_parciales')
x_(4,_'Diseño_talleres_magistrales')
x_(4,_'Diseño_talleres_trabajo_asistido')
x_(4,_'Diseño_tareas')
x_(4,_'Diseño_y_grabación_videos_PuLP')
x_(4,_'Diseño_y_grabación_videos_magistrales')
x_(4,_'Edición_videos_PuLP')
x_(4,_'Edición_videos_trabajo_asistido')
x_(4,_'Grabación_videos_trabajo_asistido')
x_(5,_'Diseño_jupyter_notebooks')
x_(5,_'Diseño_parciales')
x_(5,_'Diseño_talleres_magistrales')
x_(5,_'Diseño_talleres_trabajo_asistido')
x_(5,_'Diseño_tareas')
x_(5,_'Diseño_y_grabación_videos_PuLP')
x_(5,_'Diseño_y_grabación_videos_magistrales')
x_(5,_'Edición_videos_PuLP')
x_(5,_'Edición_videos_trabajo_asistido')
x_(5,_'Grabación_videos_trabajo_asistido')
End
